NAME          ClpDefau
ROWS
 N  OBJROW
 L  R_148_0
 L  R_148_1
 L  R_148_2
 L  R_148_3
 L  R_148_4
 L  R_148_5
 L  R_148_6
 L  R_148_7
 L  R_148_8
 L  R_148_9
 L  R_148_10
 L  R_148_11
 L  R_148_12
 L  R_148_13
 L  R_148_14
 L  R_148_15
 L  R_148_16
 L  R_148_17
 L  R_148_18
 L  R_148_19
 L  R_148_20
 L  R_148_21
 L  R_148_22
 L  R_148_23
 L  R_148_24
 L  R_148_25
 L  R_148_26
 L  R_148_27
 L  R_148_28
 L  R_148_29
 L  R_148_30
 L  R_148_31
COLUMNS
    x_0       OBJROW     -8.           R_148_15  23.         
    x_0       R_148_17  42.            R_148_18  66.         
    x_0       R_148_22  58.            R_148_31  97.         
    x_1       OBJROW     -12.       
    x_2       OBJROW     -11.          R_148_5   25.         
    x_2       R_148_7   74.            R_148_12  67.         
    x_2       R_148_13  35.            R_148_19  47.         
    x_2       R_148_22  15.            R_148_24  94.         
    x_2       R_148_27  21.            R_148_30  76.         
    x_2       R_148_31  32.         
    x_3       OBJROW     -47.          R_148_0   5.          
    x_3       R_148_1   79.            R_148_9   34.         
    x_3       R_148_17  58.         
    x_4       OBJROW     -22.          R_148_1   22.         
    x_4       R_148_2   82.            R_148_6   32.         
    x_4       R_148_17  5.             R_148_19  66.         
    x_4       R_148_22  24.            R_148_24  4.          
    x_5       OBJROW     -95.          R_148_4   54.         
    x_5       R_148_10  16.            R_148_15  88.         
    x_5       R_148_17  26.            R_148_20  58.         
    x_5       R_148_21  82.            R_148_25  37.         
    x_5       R_148_26  40.            R_148_28  97.         
    x_5       R_148_30  48.         
    x_6       OBJROW     -86.          R_148_3   16.         
    x_6       R_148_4   79.            R_148_9   85.         
    x_6       R_148_11  91.         
    x_7       OBJROW     -40.          R_148_0   46.         
    x_7       R_148_1   70.            R_148_2   54.         
    x_7       R_148_8   38.            R_148_13  37.         
    x_7       R_148_14  70.            R_148_21  21.         
    x_7       R_148_28  57.         
    x_8       OBJROW     -33.          R_148_2   36.         
    x_8       R_148_20  60.            R_148_24  13.         
    x_8       R_148_25  28.            R_148_30  72.         
    x_9       OBJROW     -78.          R_148_0   96.         
    x_9       R_148_5   87.            R_148_12  1.          
    x_9       R_148_16  76.            R_148_22  11.         
    x_10      OBJROW     -28.          R_148_0   64.         
    x_10      R_148_4   72.            R_148_6   5.          
    x_10      R_148_16  41.            R_148_23  82.         
    x_10      R_148_27  65.         
    x_11      OBJROW     -78.          R_148_3   49.         
    x_11      R_148_12  92.            R_148_17  31.         
    x_11      R_148_21  18.         
    x_12      OBJROW     -5.           R_148_13  46.         
    x_12      R_148_15  24.            R_148_19  22.         
    x_12      R_148_31  41.         
    x_13      OBJROW     -75.          R_148_5   47.         
    x_13      R_148_14  19.            R_148_15  9.          
    x_13      R_148_18  67.            R_148_20  83.         
    x_14      OBJROW     -88.          R_148_7   14.         
    x_14      R_148_10  88.            R_148_12  51.         
    x_14      R_148_15  14.            R_148_18  55.         
    x_14      R_148_20  84.            R_148_24  18.         
    x_14      R_148_26  65.            R_148_28  70.         
    x_15      OBJROW     -21.          R_148_2   63.         
    x_15      R_148_3   70.            R_148_4   14.         
    x_15      R_148_18  27.            R_148_19  26.         
RHS
    RHS       R_148_0   204.           R_148_1   168.        
    RHS       R_148_2   204.           R_148_3   195.        
    RHS       R_148_4   202.           R_148_5   166.        
    RHS       R_148_6   161.           R_148_7   198.        
    RHS       R_148_8   195.           R_148_9   208.        
    RHS       R_148_10  172.           R_148_11  173.        
    RHS       R_148_12  172.           R_148_13  185.        
    RHS       R_148_14  197.           R_148_15  162.        
    RHS       R_148_16  201.           R_148_17  168.        
    RHS       R_148_18  200.           R_148_19  161.        
    RHS       R_148_20  207.           R_148_21  176.        
    RHS       R_148_22  204.           R_148_23  206.        
    RHS       R_148_24  190.           R_148_25  194.        
    RHS       R_148_26  163.           R_148_27  207.        
    RHS       R_148_28  209.           R_148_29  212.        
    RHS       R_148_30  174.           R_148_31  213.        
BOUNDS
 UI BOUND     x_0       100.        
 UI BOUND     x_1       100.        
 UI BOUND     x_2       100.        
 UI BOUND     x_3       100.        
 UI BOUND     x_4       100.        
 UI BOUND     x_5       100.        
 UI BOUND     x_6       100.        
 UI BOUND     x_7       100.        
 UI BOUND     x_8       100.        
 UI BOUND     x_9       100.        
 UI BOUND     x_10      100.        
 UI BOUND     x_11      100.        
 UI BOUND     x_12      100.        
 UI BOUND     x_13      100.        
 UI BOUND     x_14      100.        
 UI BOUND     x_15      100.        
ENDATA
